c A SAT instance generated from a 3-CNF formula that had 40 clauses and 10 variables
p cnf 10 40
-5 -1 3 0
9 1 3 0
1 -6 9 0
3 -8 10 0
-4 5 -1 0
-8 -4 3 0
-8 5 4 0
6 10 5 0
-4 -6 2 0
7 -6 1 0
4 6 -8 0
6 1 3 0
4 7 1 0
7 5 -2 0
10 6 -5 0
-6 -7 8 0
-6 -4 -9 0
4 2 -5 0
10 -2 -3 0
-9 10 4 0
1 5 10 0
10 -4 3 0
-5 -3 6 0
-5 -1 -10 0
-7 -2 -9 0
-1 -6 9 0
-10 -5 2 0
7 -3 9 0
-1 8 10 0
-7 -5 -1 0
2 10 -6 0
4 -3 -1 0
9 10 -6 0
-2 4 9 0
4 -2 6 0
-3 7 -5 0
-10 -8 3 0
1 10 -8 0
7 5 -2 0
2 -9 1 0
